Problem:    pronto
Rows:       5
Columns:    5
Non-zeros:  16
Status:     OPTIMAL
Objective:  0 (MINimum)

   No.   Row name   St   Activity     Lower bound   Upper bound    Marginal
------ ------------ -- ------------- ------------- ------------- -------------
     1 Bilanciamento[1]
                    NS             0            -0             =         < eps
     2 Bilanciamento[2]
                    NS             0            -0             =         < eps
     3 Bilanciamento[3]
                    NS             0            -0             =         < eps
     4 Bilanciamento[4]
                    NS             0            -0             =         < eps
     5 Normalizzazione
                    NS             1             1             =         < eps

   No. Column name  St   Activity     Lower bound   Upper bound    Marginal
------ ------------ -- ------------- ------------- ------------- -------------
     1 P[1]         B       0.154889             0               
     2 P[2]         B       0.275358             0               
     3 P[3]         B      0.0367144             0               
     4 P[4]         B       0.416097             0               
     5 P[5]         B       0.116942             0               

Karush-Kuhn-Tucker optimality conditions:

KKT.PE: max.abs.err = 1.78e-15 on row 2
        max.rel.err = 1.20e-16 on row 2
        High quality

KKT.PB: max.abs.err = 0.00e+00 on row 0
        max.rel.err = 0.00e+00 on row 0
        High quality

KKT.DE: max.abs.err = 0.00e+00 on column 0
        max.rel.err = 0.00e+00 on column 0
        High quality

KKT.DB: max.abs.err = 0.00e+00 on row 0
        max.rel.err = 0.00e+00 on row 0
        High quality

End of output
